5
169 17 316  636
73 467 134  260
482 450 287  858
379 114 480  449
173 494 156  703
20
448 419 150  5 204
367 318 215  262 104
157 383 52  287 223
236 234 176  13 350
305 388 221  357 106
360 70 185  15 243
35 377 196  42 333
74 168 107  54 463
147 53 436  39 204
79 100 233  327 100
236 470 323  150 403
215 375 86  178 462
295 168 34  54 469
399 141 267  380 480
10 35 239  145 95
471 395 491  436 107
312 151 96  395 402
86 217 263  119 145
52 397 483  125 193
187 212 9  100 208
